benchmarks/bfuzz0/28268711026635159022524841662649722648.smt2
(set-logic QF_FP)
(declare-const x0 (_ FloatingPoint 11 53))
(declare-const x1 (_ FloatingPoint 11 53))
(declare-const x2 (_ FloatingPoint 11 53))
(declare-const x3 (_ FloatingPoint 11 53))
(declare-const x4 (_ FloatingPoint 11 53))
(declare-const x5 (_ FloatingPoint 11 53))
(declare-const x6 (_ FloatingPoint 11 53))
(declare-const x7 (_ FloatingPoint 11 53))
(declare-const x8 (_ FloatingPoint 11 53))
(declare-const x9 (_ FloatingPoint 11 53))
(declare-const x10 (_ FloatingPoint 11 53))
(declare-const x11 (_ FloatingPoint 11 53))
(declare-const x12 (_ FloatingPoint 11 53))
(declare-const x13 (_ FloatingPoint 11 53))
(declare-const x14 (_ FloatingPoint 11 53))
(declare-const x15 (_ FloatingPoint 11 53))
(declare-const x16 (_ FloatingPoint 11 53))
(declare-const x17 (_ FloatingPoint 11 53))
(declare-const x18 (_ FloatingPoint 11 53))
(declare-const x19 (_ FloatingPoint 11 53))
(declare-const x20 (_ FloatingPoint 11 53))
(declare-const x21 (_ FloatingPoint 11 53))
(declare-const x22 (_ FloatingPoint 11 53))
(assert (fp.lt (fp.add RNE (fp.neg x6) (fp.neg x15)) (fp.neg (fp.div RNE x7 x12))))
(assert (fp.leq (fp.sub RNE (fp.sub RNE x2 x15) (fp.neg x3)) (fp.mul RNE (fp.div RNE x0 x22) (fp.add RNE x13 x17))))
(assert (fp.lt (fp.div RNE (fp.mul RNE x5 x5) (fp.neg x2)) (fp.sub RNE (fp.add RNE x9 x19) (fp.sub RNE x14 x2))))
(assert (fp.geq (fp.mul RNE (fp.mul RNE x13 x9) (fp.div RNE x5 x9)) (fp.neg (fp.sub RNE x7 x16))))
(assert (fp.leq (fp.div RNE (fp.mul RNE x21 x3) (fp.div RNE x15 x2)) (fp.mul RNE (fp.mul RNE x7 x22) (fp.mul RNE x5 x10))))
(assert (fp.lt (fp.sub RNE (fp.neg x12) (fp.div RNE x22 x18)) (fp.neg (fp.sub RNE x12 x11))))
(assert (fp.lt (fp.neg (fp.div RNE x18 x5)) (fp.neg (fp.div RNE x18 x14))))
(assert (fp.lt (fp.neg (fp.mul RNE x21 x19)) (fp.mul RNE (fp.div RNE x16 x1) (fp.sub RNE x13 x0))))
(assert (fp.leq (fp.div RNE (fp.sub RNE x6 x17) (fp.mul RNE x12 x22)) (fp.add RNE (fp.add RNE x15 x8) (fp.add RNE x19 x17))))
(check-sat)
