db/data/28268711026635159022524841662649722648.z3.out
-------------------
2500.129637904
